p cnf 17 16
-1 6 15 0 
-2 4 11 16 0 
-2 4 11 17 0 
-3 17 0 
-3 16 0 
-4 2 11 -5 16 0 
-4 2 11 -5 17 0 
-2 4 11 -6 1 17 0 
-7 17 0 
-7 16 0 
-8 -9 -2 4 11 16 0 
-10 15 0 
-7 15 0 
-9 -2 4 11 16 0 
-11 2 4 17 0 
-12 -13 -14 15 0 
